c created by igraph
p max 10 45
n 1 s
n 2 t
a 1 2 1
a 1 3 1
a 1 4 1
a 1 5 1
a 1 6 1
a 1 7 1
a 1 8 1
a 1 9 1
a 1 10 1
a 2 3 1
a 2 4 1
a 2 5 1
a 2 6 1
a 2 7 1
a 2 8 1
a 2 9 1
a 2 10 1
a 3 4 1
a 3 5 1
a 3 6 1
a 3 7 1
a 3 8 1
a 3 9 1
a 3 10 1
a 4 5 1
a 4 6 1
a 4 7 1
a 4 8 1
a 4 9 1
a 4 10 1
a 5 6 1
a 5 7 1
a 5 8 1
a 5 9 1
a 5 10 1
a 6 7 1
a 6 8 1
a 6 9 1
a 6 10 1
a 7 8 1
a 7 9 1
a 7 10 1
a 8 9 1
a 8 10 1
a 9 10 1
